%mem=16Gb
%NProc=8
%chk=pao_oh2_c2o4_h2o-bp86-cosmors-deftzvp-klamt.chk
#p BP86/GEN Pseudo=Read
   GFInput GFPrint 
   IOP(6/7=3)
   Symm=(Loose) Int=(UltraFine)
   Guess=(Harris)
   SCRF=(COSMORS)
   Scf=(NoVarAcc,MaxCycle=100,conver=8)

pao_oh2_c2o4_h2o-bp86-cosmors-deftzvp-klamt.com SGP in PCM calculation 

 -1  1
Pa   0.4522944352242697      0.678657010667157    -0.1230677361032542
O    2.567590907716183       0.8059427852889877   -0.6855801028740957
H   -0.8741386207472975      1.463326084521025    -2.537581983814829
O    0.7856841408218668     -0.0343505592462755    1.585503910231507
O   -0.04547038572811789     1.160983779453088    -2.143336784008854
O   -0.4762953970810322     -1.591328797008511    -0.7217656993479715
H   -0.9121106080990998     -1.832945397341389    -1.54921062500558
H   -0.6017880608337587     -2.326931692104194    -0.1086350819862358
H    3.306662669277715       0.585505130988981    -0.1072207275550694
O    0.2465741022719493      2.91888220755431      0.5816774502615257
C   -2.08761712934505        2.462491555098528     0.9003637987051955
C   -0.8665644836846772      3.447448176986353     0.9669848880904632
O   -1.776507485480098       1.286060511092725     0.4760250421164067
O   -3.205788413650781       2.837010359548224     1.231150346000712
O   -1.016453715760268       4.598772874440903     1.353812581533651

!input file for basis set of Pa
@/home/shaaban/basis.gaussian/Pa-def-TZVP/N
****
O  0
Def2TZVP
****
H 0
Def2TZVP
****
C 0
Def2TZVP
****

!input file for ECP for Pa
@/home/shaaban/basis.gaussian/Pa-ECP60MWB/N

pao_oh2_c2o4_h2o-bp86-cosmors-deftzvp-klamt.cosmo


