%mem=16Gb
%NProc=8
%chk=pa_oh4_c2o4-bp86-cosmors-deftzvp-gp.chk
#p BP86/GEN Pseudo=Read
   GFInput GFPrint 
   IOP(6/7=3)
   Symm=(Loose) Int=(UltraFine)
   Guess=(Harris)
   Scf=(NoVarAcc,MaxCycle=100,conver=8)

pa_oh4_c2o4-bp86-cosmors-deftzvp-gp.com SGP in PCM calculation 

 -1  1
Pa 0.6599278617428804  -0.2256211324947861 -0.3736562824991584
O  1.160074120498666    1.29318529280236   -1.775092778998431
H  0.8702624891880042   1.549662659672242  -2.658681902550446
O -0.7366245677403814   1.065638989731663   0.6101870195382098
H -1.089867423597914    1.946259301786306   0.4408850943771432
O -0.5685495857422367  -1.169170197747577  -1.844653925349928
H -1.189371453989435   -1.90213614543375   -1.915876061522639
O  0.2826542127635406  -1.750917357834336   1.057265738787175
H -0.3875360388241896  -1.92382875453156    1.729196724369899
O  2.53250044014997     0.4584521891774773  0.8556067747941756
O  2.612405160729092   -1.366849721352539  -0.9873796568186345
C  3.721310002791519   -0.01400206989900705 0.6528821219065563
C  3.768260078789155   -1.122857559799649  -0.4563916061504515
O  4.737077700323266    0.3315695752147366  1.234458968551285
O  4.819496718590926   -1.669077835660283  -0.7496812030556075

!input file for basis set of Pa
@/home/shaaban/basis.gaussian/Pa-def-TZVP/N
****
O  0
Def2TZVP
****
H 0
Def2TZVP
****
C 0
Def2TZVP
****

!input file for ECP for Pa
@/home/shaaban/basis.gaussian/Pa-ECP60MWB/N




